0,1
7,1
0,1
0,1
0,1
0,2
9,2
0,2
1,2
0,1
0,1
0,1
0,1
2,5
8,5
0,2
5,3
0,3
0,4
0,4
0,5
0,5
0,5
9,5
8,2
7,3
0,3
3,4
0,4
0,5
0,5
0,5
5,2
0,2
9,3
0,3
0,4
8,6
0,6
5,6
0,7
3,2
0,3
0,3
2,3
0,4
0,4
0,6
0,6
0,7
7,8
0,8
0,9
0,9
0,4
4,4
0,6
8,7
0,7
0,8
0,8
0,9
0,9
0,6
0,6
0,6
0,7
0,8
0,8
5,8
0,9
0,9
0,7
6,7
0,7
9,7
0,8
1,8
0,9
2,9
0,9